
  32    4
  10   10   10   10

   0   0   0   0   0   2 2 5 
   3   1   1   1   0   1 3 
   9   3   0   4   1   1 4 
   3   3   4   0   2   1 6 
   5   0   5   4   4   1 6 
   1   2   5   0   2   2 8 7 
   7   5   4   0   4   2 12 9 
   5   0   5   2   5   2 12 11 
   2   0   5   5   4   1 10 
   9   3   4   5   0   1 11 
   6   6   0   2   4   1 13 
   7   6   3   0   3   1 13 
   9   0   3   7   4   2 17 14 
   4   4   5   0   4   1 15 
   4   4   0   6   4   1 16 
   8   5   0   4   8   2 19 18 
   2   4   3   5   0   1 18 
   3   6   0   7   5   1 20 
   1   6   4   3   0   1 20 
   5   7   0   6   5   1 21 
  10   2   3   3   0   1 22 
   8   3   0   4   2   1 23 
   4   8   5   0   2   1 24 
  10   4   4   0   3   1 25 
   2   2   0   6   6   2 28 26 
   4   2   3   2   0   1 27 
   2   0   3   4   6   1 29 
   9   4   0   5   6   1 29 
  10   3   3   0   4   1 30 
   5   3   6   2   0   1 31 
   8   4   6   1   0   1 32
   0   0   0   0   0   0 
